\ This file has been generated by DOcplex
\ ENCODING=ISO-8859-1
\Problem name: LABS of size 21

Minimize
 obj: [ 2 C_1^2 + 2 C_2^2 + 2 C_3^2 + 2 C_4^2 + 2 C_5^2 + 2 C_6^2 + 2 C_7^2
      + 2 C_8^2 + 2 C_9^2 + 2 C_10^2 + 2 C_11^2 + 2 C_12^2 + 2 C_13^2 + 2 C_14^2
      + 2 C_15^2 + 2 C_16^2 + 2 C_17^2 + 2 C_18^2 + 2 C_19^2 + 2 C_20^2 ]/2
Subject To
 c1: - 4 b_1 - 4 b_2 - 4 b_3 - 4 b_4 - 4 b_5 - 4 b_6 - 4 b_7 - 4 b_8 - 4 b_9
     - 4 b_10 - 4 b_11 - 4 b_12 - 4 b_13 - 4 b_14 - 4 b_15 - 4 b_16 - 4 b_17
     - 4 b_18 - 4 b_19 - 2 b_20 - 2 b_21 + 4 b_y_1_2 + 4 b_y_2_3 + 4 b_y_3_4
     + 4 b_y_4_5 + 4 b_y_5_6 + 4 b_y_6_7 + 4 b_y_7_8 + 4 b_y_8_9 + 4 b_y_9_10
     + 4 b_y_10_11 + 4 b_y_11_12 + 4 b_y_12_13 + 4 b_y_13_14 + 4 b_y_14_15
     + 4 b_y_15_16 + 4 b_y_16_17 + 4 b_y_17_18 + 4 b_y_18_19 + 4 b_y_19_20
     + 4 b_y_20_21 - C_1 = -20
 c2: - 2 b_1 - 4 b_2 - 4 b_3 - 4 b_4 - 4 b_5 - 4 b_6 - 4 b_7 - 4 b_8 - 4 b_9
     - 4 b_10 - 4 b_11 - 4 b_12 - 4 b_13 - 4 b_14 - 4 b_15 - 4 b_16 - 4 b_17
     - 4 b_18 - 2 b_19 - 2 b_20 - 2 b_21 + 4 b_y_1_3 + 4 b_y_2_4 + 4 b_y_3_5
     + 4 b_y_4_6 + 4 b_y_5_7 + 4 b_y_6_8 + 4 b_y_7_9 + 4 b_y_8_10 + 4 b_y_9_11
     + 4 b_y_10_12 + 4 b_y_11_13 + 4 b_y_12_14 + 4 b_y_13_15 + 4 b_y_14_16
     + 4 b_y_15_17 + 4 b_y_16_18 + 4 b_y_17_19 + 4 b_y_18_20 + 4 b_y_19_21 - C_2
      = -19
 c3: - 2 b_1 - 2 b_2 - 4 b_3 - 4 b_4 - 4 b_5 - 4 b_6 - 4 b_7 - 4 b_8 - 4 b_9
     - 4 b_10 - 4 b_11 - 4 b_12 - 4 b_13 - 4 b_14 - 4 b_15 - 4 b_16 - 4 b_17
     - 2 b_18 - 2 b_19 - 2 b_20 - 2 b_21 + 4 b_y_1_4 + 4 b_y_2_5 + 4 b_y_3_6
     + 4 b_y_4_7 + 4 b_y_5_8 + 4 b_y_6_9 + 4 b_y_7_10 + 4 b_y_8_11 + 4 b_y_9_12
     + 4 b_y_10_13 + 4 b_y_11_14 + 4 b_y_12_15 + 4 b_y_13_16 + 4 b_y_14_17
     + 4 b_y_15_18 + 4 b_y_16_19 + 4 b_y_17_20 + 4 b_y_18_21 - C_3 = -18
 c4: - 2 b_1 - 2 b_2 - 2 b_3 - 4 b_4 - 4 b_5 - 4 b_6 - 4 b_7 - 4 b_8 - 4 b_9
     - 4 b_10 - 4 b_11 - 4 b_12 - 4 b_13 - 4 b_14 - 4 b_15 - 4 b_16 - 2 b_17
     - 2 b_18 - 2 b_19 - 2 b_20 - 2 b_21 + 4 b_y_1_5 + 4 b_y_2_6 + 4 b_y_3_7
     + 4 b_y_4_8 + 4 b_y_5_9 + 4 b_y_6_10 + 4 b_y_7_11 + 4 b_y_8_12 + 4 b_y_9_13
     + 4 b_y_10_14 + 4 b_y_11_15 + 4 b_y_12_16 + 4 b_y_13_17 + 4 b_y_14_18
     + 4 b_y_15_19 + 4 b_y_16_20 + 4 b_y_17_21 - C_4 = -17
 c5: - 2 b_1 - 2 b_2 - 2 b_3 - 2 b_4 - 4 b_5 - 4 b_6 - 4 b_7 - 4 b_8 - 4 b_9
     - 4 b_10 - 4 b_11 - 4 b_12 - 4 b_13 - 4 b_14 - 4 b_15 - 2 b_16 - 2 b_17
     - 2 b_18 - 2 b_19 - 2 b_20 - 2 b_21 + 4 b_y_1_6 + 4 b_y_2_7 + 4 b_y_3_8
     + 4 b_y_4_9 + 4 b_y_5_10 + 4 b_y_6_11 + 4 b_y_7_12 + 4 b_y_8_13
     + 4 b_y_9_14 + 4 b_y_10_15 + 4 b_y_11_16 + 4 b_y_12_17 + 4 b_y_13_18
     + 4 b_y_14_19 + 4 b_y_15_20 + 4 b_y_16_21 - C_5 = -16
 c6: - 2 b_1 - 2 b_2 - 2 b_3 - 2 b_4 - 2 b_5 - 4 b_6 - 4 b_7 - 4 b_8 - 4 b_9
     - 4 b_10 - 4 b_11 - 4 b_12 - 4 b_13 - 4 b_14 - 2 b_15 - 2 b_16 - 2 b_17
     - 2 b_18 - 2 b_19 - 2 b_20 - 2 b_21 + 4 b_y_1_7 + 4 b_y_2_8 + 4 b_y_3_9
     + 4 b_y_4_10 + 4 b_y_5_11 + 4 b_y_6_12 + 4 b_y_7_13 + 4 b_y_8_14
     + 4 b_y_9_15 + 4 b_y_10_16 + 4 b_y_11_17 + 4 b_y_12_18 + 4 b_y_13_19
     + 4 b_y_14_20 + 4 b_y_15_21 - C_6 = -15
 c7: - 2 b_1 - 2 b_2 - 2 b_3 - 2 b_4 - 2 b_5 - 2 b_6 - 4 b_7 - 4 b_8 - 4 b_9
     - 4 b_10 - 4 b_11 - 4 b_12 - 4 b_13 - 2 b_14 - 2 b_15 - 2 b_16 - 2 b_17
     - 2 b_18 - 2 b_19 - 2 b_20 - 2 b_21 + 4 b_y_1_8 + 4 b_y_2_9 + 4 b_y_3_10
     + 4 b_y_4_11 + 4 b_y_5_12 + 4 b_y_6_13 + 4 b_y_7_14 + 4 b_y_8_15
     + 4 b_y_9_16 + 4 b_y_10_17 + 4 b_y_11_18 + 4 b_y_12_19 + 4 b_y_13_20
     + 4 b_y_14_21 - C_7 = -14
 c8: - 2 b_1 - 2 b_2 - 2 b_3 - 2 b_4 - 2 b_5 - 2 b_6 - 2 b_7 - 4 b_8 - 4 b_9
     - 4 b_10 - 4 b_11 - 4 b_12 - 2 b_13 - 2 b_14 - 2 b_15 - 2 b_16 - 2 b_17
     - 2 b_18 - 2 b_19 - 2 b_20 - 2 b_21 + 4 b_y_1_9 + 4 b_y_2_10 + 4 b_y_3_11
     + 4 b_y_4_12 + 4 b_y_5_13 + 4 b_y_6_14 + 4 b_y_7_15 + 4 b_y_8_16
     + 4 b_y_9_17 + 4 b_y_10_18 + 4 b_y_11_19 + 4 b_y_12_20 + 4 b_y_13_21 - C_8
      = -13
 c9: - 2 b_1 - 2 b_2 - 2 b_3 - 2 b_4 - 2 b_5 - 2 b_6 - 2 b_7 - 2 b_8 - 4 b_9
     - 4 b_10 - 4 b_11 - 2 b_12 - 2 b_13 - 2 b_14 - 2 b_15 - 2 b_16 - 2 b_17
     - 2 b_18 - 2 b_19 - 2 b_20 - 2 b_21 + 4 b_y_1_10 + 4 b_y_2_11 + 4 b_y_3_12
     + 4 b_y_4_13 + 4 b_y_5_14 + 4 b_y_6_15 + 4 b_y_7_16 + 4 b_y_8_17
     + 4 b_y_9_18 + 4 b_y_10_19 + 4 b_y_11_20 + 4 b_y_12_21 - C_9 = -12
 c10: - 2 b_1 - 2 b_2 - 2 b_3 - 2 b_4 - 2 b_5 - 2 b_6 - 2 b_7 - 2 b_8 - 2 b_9
      - 4 b_10 - 2 b_11 - 2 b_12 - 2 b_13 - 2 b_14 - 2 b_15 - 2 b_16 - 2 b_17
      - 2 b_18 - 2 b_19 - 2 b_20 - 2 b_21 + 4 b_y_1_11 + 4 b_y_2_12 + 4 b_y_3_13
      + 4 b_y_4_14 + 4 b_y_5_15 + 4 b_y_6_16 + 4 b_y_7_17 + 4 b_y_8_18
      + 4 b_y_9_19 + 4 b_y_10_20 + 4 b_y_11_21 - C_10 = -11
 c11: - 2 b_1 - 2 b_2 - 2 b_3 - 2 b_4 - 2 b_5 - 2 b_6 - 2 b_7 - 2 b_8 - 2 b_9
      - 2 b_11 - 2 b_12 - 2 b_13 - 2 b_14 - 2 b_15 - 2 b_16 - 2 b_17 - 2 b_18
      - 2 b_19 - 2 b_20 - 2 b_21 + 4 b_y_1_12 + 4 b_y_2_13 + 4 b_y_3_14
      + 4 b_y_4_15 + 4 b_y_5_16 + 4 b_y_6_17 + 4 b_y_7_18 + 4 b_y_8_19
      + 4 b_y_9_20 + 4 b_y_10_21 - C_11 = -10
 c12: - 2 b_1 - 2 b_2 - 2 b_3 - 2 b_4 - 2 b_5 - 2 b_6 - 2 b_7 - 2 b_8 - 2 b_12
      - 2 b_13 - 2 b_14 - 2 b_15 - 2 b_16 - 2 b_17 - 2 b_18 - 2 b_19 - 2 b_20
      - 2 b_21 + 4 b_y_1_13 + 4 b_y_2_14 + 4 b_y_3_15 + 4 b_y_4_16 + 4 b_y_5_17
      + 4 b_y_6_18 + 4 b_y_7_19 + 4 b_y_8_20 + 4 b_y_9_21 - C_12 = -9
 c13: - 2 b_1 - 2 b_2 - 2 b_3 - 2 b_4 - 2 b_5 - 2 b_6 - 2 b_7 - 2 b_13 - 2 b_14
      - 2 b_15 - 2 b_16 - 2 b_17 - 2 b_18 - 2 b_19 - 2 b_20 - 2 b_21
      + 4 b_y_1_14 + 4 b_y_2_15 + 4 b_y_3_16 + 4 b_y_4_17 + 4 b_y_5_18
      + 4 b_y_6_19 + 4 b_y_7_20 + 4 b_y_8_21 - C_13 = -8
 c14: - 2 b_1 - 2 b_2 - 2 b_3 - 2 b_4 - 2 b_5 - 2 b_6 - 2 b_14 - 2 b_15 - 2 b_16
      - 2 b_17 - 2 b_18 - 2 b_19 - 2 b_20 - 2 b_21 + 4 b_y_1_15 + 4 b_y_2_16
      + 4 b_y_3_17 + 4 b_y_4_18 + 4 b_y_5_19 + 4 b_y_6_20 + 4 b_y_7_21 - C_14
       = -7
 c15: - 2 b_1 - 2 b_2 - 2 b_3 - 2 b_4 - 2 b_5 - 2 b_15 - 2 b_16 - 2 b_17
      - 2 b_18 - 2 b_19 - 2 b_20 - 2 b_21 + 4 b_y_1_16 + 4 b_y_2_17 + 4 b_y_3_18
      + 4 b_y_4_19 + 4 b_y_5_20 + 4 b_y_6_21 - C_15 = -6
 c16: - 2 b_1 - 2 b_2 - 2 b_3 - 2 b_4 - 2 b_16 - 2 b_17 - 2 b_18 - 2 b_19
      - 2 b_20 - 2 b_21 + 4 b_y_1_17 + 4 b_y_2_18 + 4 b_y_3_19 + 4 b_y_4_20
      + 4 b_y_5_21 - C_16 = -5
 c17: - 2 b_1 - 2 b_2 - 2 b_3 - 2 b_17 - 2 b_18 - 2 b_19 - 2 b_20 - 2 b_21
      + 4 b_y_1_18 + 4 b_y_2_19 + 4 b_y_3_20 + 4 b_y_4_21 - C_17 = -4
 c18: - 2 b_1 - 2 b_2 - 2 b_18 - 2 b_19 - 2 b_20 - 2 b_21 + 4 b_y_1_19
      + 4 b_y_2_20 + 4 b_y_3_21 - C_18 = -3
 c19: - 2 b_1 - 2 b_19 - 2 b_20 - 2 b_21 + 4 b_y_1_20 + 4 b_y_2_21 - C_19 = -2
 c20: - 2 b_20 - 2 b_21 + 4 b_y_1_21 - C_20 = -1
 c21: b_y_1_2 - 0.500000000000 b_1 - 0.500000000000 b_2 <= 0
 c22: b_y_1_2 - b_1 - b_2 >= -1
 c23: b_y_2_3 - 0.500000000000 b_2 - 0.500000000000 b_3 <= 0
 c24: b_y_2_3 - b_2 - b_3 >= -1
 c25: b_y_3_4 - 0.500000000000 b_3 - 0.500000000000 b_4 <= 0
 c26: b_y_3_4 - b_3 - b_4 >= -1
 c27: b_y_4_5 - 0.500000000000 b_4 - 0.500000000000 b_5 <= 0
 c28: b_y_4_5 - b_4 - b_5 >= -1
 c29: b_y_5_6 - 0.500000000000 b_5 - 0.500000000000 b_6 <= 0
 c30: b_y_5_6 - b_5 - b_6 >= -1
 c31: b_y_6_7 - 0.500000000000 b_6 - 0.500000000000 b_7 <= 0
 c32: b_y_6_7 - b_6 - b_7 >= -1
 c33: b_y_7_8 - 0.500000000000 b_7 - 0.500000000000 b_8 <= 0
 c34: b_y_7_8 - b_7 - b_8 >= -1
 c35: b_y_8_9 - 0.500000000000 b_8 - 0.500000000000 b_9 <= 0
 c36: b_y_8_9 - b_8 - b_9 >= -1
 c37: b_y_9_10 - 0.500000000000 b_9 - 0.500000000000 b_10 <= 0
 c38: b_y_9_10 - b_9 - b_10 >= -1
 c39: b_y_10_11 - 0.500000000000 b_10 - 0.500000000000 b_11 <= 0
 c40: b_y_10_11 - b_10 - b_11 >= -1
 c41: b_y_11_12 - 0.500000000000 b_11 - 0.500000000000 b_12 <= 0
 c42: b_y_11_12 - b_11 - b_12 >= -1
 c43: b_y_12_13 - 0.500000000000 b_12 - 0.500000000000 b_13 <= 0
 c44: b_y_12_13 - b_12 - b_13 >= -1
 c45: b_y_13_14 - 0.500000000000 b_13 - 0.500000000000 b_14 <= 0
 c46: b_y_13_14 - b_13 - b_14 >= -1
 c47: b_y_14_15 - 0.500000000000 b_14 - 0.500000000000 b_15 <= 0
 c48: b_y_14_15 - b_14 - b_15 >= -1
 c49: b_y_15_16 - 0.500000000000 b_15 - 0.500000000000 b_16 <= 0
 c50: b_y_15_16 - b_15 - b_16 >= -1
 c51: b_y_16_17 - 0.500000000000 b_16 - 0.500000000000 b_17 <= 0
 c52: b_y_16_17 - b_16 - b_17 >= -1
 c53: b_y_17_18 - 0.500000000000 b_17 - 0.500000000000 b_18 <= 0
 c54: b_y_17_18 - b_17 - b_18 >= -1
 c55: b_y_18_19 - 0.500000000000 b_18 - 0.500000000000 b_19 <= 0
 c56: b_y_18_19 - b_18 - b_19 >= -1
 c57: b_y_19_20 - 0.500000000000 b_19 - 0.500000000000 b_20 <= 0
 c58: b_y_19_20 - b_19 - b_20 >= -1
 c59: b_y_20_21 - 0.500000000000 b_20 - 0.500000000000 b_21 <= 0
 c60: b_y_20_21 - b_20 - b_21 >= -1
 c61: b_y_1_3 - 0.500000000000 b_1 - 0.500000000000 b_3 <= 0
 c62: b_y_1_3 - b_1 - b_3 >= -1
 c63: b_y_2_4 - 0.500000000000 b_2 - 0.500000000000 b_4 <= 0
 c64: b_y_2_4 - b_2 - b_4 >= -1
 c65: b_y_3_5 - 0.500000000000 b_3 - 0.500000000000 b_5 <= 0
 c66: b_y_3_5 - b_3 - b_5 >= -1
 c67: b_y_4_6 - 0.500000000000 b_4 - 0.500000000000 b_6 <= 0
 c68: b_y_4_6 - b_4 - b_6 >= -1
 c69: b_y_5_7 - 0.500000000000 b_5 - 0.500000000000 b_7 <= 0
 c70: b_y_5_7 - b_5 - b_7 >= -1
 c71: b_y_6_8 - 0.500000000000 b_6 - 0.500000000000 b_8 <= 0
 c72: b_y_6_8 - b_6 - b_8 >= -1
 c73: b_y_7_9 - 0.500000000000 b_7 - 0.500000000000 b_9 <= 0
 c74: b_y_7_9 - b_7 - b_9 >= -1
 c75: b_y_8_10 - 0.500000000000 b_8 - 0.500000000000 b_10 <= 0
 c76: b_y_8_10 - b_8 - b_10 >= -1
 c77: b_y_9_11 - 0.500000000000 b_9 - 0.500000000000 b_11 <= 0
 c78: b_y_9_11 - b_9 - b_11 >= -1
 c79: b_y_10_12 - 0.500000000000 b_10 - 0.500000000000 b_12 <= 0
 c80: b_y_10_12 - b_10 - b_12 >= -1
 c81: b_y_11_13 - 0.500000000000 b_11 - 0.500000000000 b_13 <= 0
 c82: b_y_11_13 - b_11 - b_13 >= -1
 c83: b_y_12_14 - 0.500000000000 b_12 - 0.500000000000 b_14 <= 0
 c84: b_y_12_14 - b_12 - b_14 >= -1
 c85: b_y_13_15 - 0.500000000000 b_13 - 0.500000000000 b_15 <= 0
 c86: b_y_13_15 - b_13 - b_15 >= -1
 c87: b_y_14_16 - 0.500000000000 b_14 - 0.500000000000 b_16 <= 0
 c88: b_y_14_16 - b_14 - b_16 >= -1
 c89: b_y_15_17 - 0.500000000000 b_15 - 0.500000000000 b_17 <= 0
 c90: b_y_15_17 - b_15 - b_17 >= -1
 c91: b_y_16_18 - 0.500000000000 b_16 - 0.500000000000 b_18 <= 0
 c92: b_y_16_18 - b_16 - b_18 >= -1
 c93: b_y_17_19 - 0.500000000000 b_17 - 0.500000000000 b_19 <= 0
 c94: b_y_17_19 - b_17 - b_19 >= -1
 c95: b_y_18_20 - 0.500000000000 b_18 - 0.500000000000 b_20 <= 0
 c96: b_y_18_20 - b_18 - b_20 >= -1
 c97: b_y_19_21 - 0.500000000000 b_19 - 0.500000000000 b_21 <= 0
 c98: b_y_19_21 - b_19 - b_21 >= -1
 c99: b_y_1_4 - 0.500000000000 b_1 - 0.500000000000 b_4 <= 0
 c100: b_y_1_4 - b_1 - b_4 >= -1
 c101: b_y_2_5 - 0.500000000000 b_2 - 0.500000000000 b_5 <= 0
 c102: b_y_2_5 - b_2 - b_5 >= -1
 c103: b_y_3_6 - 0.500000000000 b_3 - 0.500000000000 b_6 <= 0
 c104: b_y_3_6 - b_3 - b_6 >= -1
 c105: b_y_4_7 - 0.500000000000 b_4 - 0.500000000000 b_7 <= 0
 c106: b_y_4_7 - b_4 - b_7 >= -1
 c107: b_y_5_8 - 0.500000000000 b_5 - 0.500000000000 b_8 <= 0
 c108: b_y_5_8 - b_5 - b_8 >= -1
 c109: b_y_6_9 - 0.500000000000 b_6 - 0.500000000000 b_9 <= 0
 c110: b_y_6_9 - b_6 - b_9 >= -1
 c111: b_y_7_10 - 0.500000000000 b_7 - 0.500000000000 b_10 <= 0
 c112: b_y_7_10 - b_7 - b_10 >= -1
 c113: b_y_8_11 - 0.500000000000 b_8 - 0.500000000000 b_11 <= 0
 c114: b_y_8_11 - b_8 - b_11 >= -1
 c115: b_y_9_12 - 0.500000000000 b_9 - 0.500000000000 b_12 <= 0
 c116: b_y_9_12 - b_9 - b_12 >= -1
 c117: b_y_10_13 - 0.500000000000 b_10 - 0.500000000000 b_13 <= 0
 c118: b_y_10_13 - b_10 - b_13 >= -1
 c119: b_y_11_14 - 0.500000000000 b_11 - 0.500000000000 b_14 <= 0
 c120: b_y_11_14 - b_11 - b_14 >= -1
 c121: b_y_12_15 - 0.500000000000 b_12 - 0.500000000000 b_15 <= 0
 c122: b_y_12_15 - b_12 - b_15 >= -1
 c123: b_y_13_16 - 0.500000000000 b_13 - 0.500000000000 b_16 <= 0
 c124: b_y_13_16 - b_13 - b_16 >= -1
 c125: b_y_14_17 - 0.500000000000 b_14 - 0.500000000000 b_17 <= 0
 c126: b_y_14_17 - b_14 - b_17 >= -1
 c127: b_y_15_18 - 0.500000000000 b_15 - 0.500000000000 b_18 <= 0
 c128: b_y_15_18 - b_15 - b_18 >= -1
 c129: b_y_16_19 - 0.500000000000 b_16 - 0.500000000000 b_19 <= 0
 c130: b_y_16_19 - b_16 - b_19 >= -1
 c131: b_y_17_20 - 0.500000000000 b_17 - 0.500000000000 b_20 <= 0
 c132: b_y_17_20 - b_17 - b_20 >= -1
 c133: b_y_18_21 - 0.500000000000 b_18 - 0.500000000000 b_21 <= 0
 c134: b_y_18_21 - b_18 - b_21 >= -1
 c135: b_y_1_5 - 0.500000000000 b_1 - 0.500000000000 b_5 <= 0
 c136: b_y_1_5 - b_1 - b_5 >= -1
 c137: b_y_2_6 - 0.500000000000 b_2 - 0.500000000000 b_6 <= 0
 c138: b_y_2_6 - b_2 - b_6 >= -1
 c139: b_y_3_7 - 0.500000000000 b_3 - 0.500000000000 b_7 <= 0
 c140: b_y_3_7 - b_3 - b_7 >= -1
 c141: b_y_4_8 - 0.500000000000 b_4 - 0.500000000000 b_8 <= 0
 c142: b_y_4_8 - b_4 - b_8 >= -1
 c143: b_y_5_9 - 0.500000000000 b_5 - 0.500000000000 b_9 <= 0
 c144: b_y_5_9 - b_5 - b_9 >= -1
 c145: b_y_6_10 - 0.500000000000 b_6 - 0.500000000000 b_10 <= 0
 c146: b_y_6_10 - b_6 - b_10 >= -1
 c147: b_y_7_11 - 0.500000000000 b_7 - 0.500000000000 b_11 <= 0
 c148: b_y_7_11 - b_7 - b_11 >= -1
 c149: b_y_8_12 - 0.500000000000 b_8 - 0.500000000000 b_12 <= 0
 c150: b_y_8_12 - b_8 - b_12 >= -1
 c151: b_y_9_13 - 0.500000000000 b_9 - 0.500000000000 b_13 <= 0
 c152: b_y_9_13 - b_9 - b_13 >= -1
 c153: b_y_10_14 - 0.500000000000 b_10 - 0.500000000000 b_14 <= 0
 c154: b_y_10_14 - b_10 - b_14 >= -1
 c155: b_y_11_15 - 0.500000000000 b_11 - 0.500000000000 b_15 <= 0
 c156: b_y_11_15 - b_11 - b_15 >= -1
 c157: b_y_12_16 - 0.500000000000 b_12 - 0.500000000000 b_16 <= 0
 c158: b_y_12_16 - b_12 - b_16 >= -1
 c159: b_y_13_17 - 0.500000000000 b_13 - 0.500000000000 b_17 <= 0
 c160: b_y_13_17 - b_13 - b_17 >= -1
 c161: b_y_14_18 - 0.500000000000 b_14 - 0.500000000000 b_18 <= 0
 c162: b_y_14_18 - b_14 - b_18 >= -1
 c163: b_y_15_19 - 0.500000000000 b_15 - 0.500000000000 b_19 <= 0
 c164: b_y_15_19 - b_15 - b_19 >= -1
 c165: b_y_16_20 - 0.500000000000 b_16 - 0.500000000000 b_20 <= 0
 c166: b_y_16_20 - b_16 - b_20 >= -1
 c167: b_y_17_21 - 0.500000000000 b_17 - 0.500000000000 b_21 <= 0
 c168: b_y_17_21 - b_17 - b_21 >= -1
 c169: b_y_1_6 - 0.500000000000 b_1 - 0.500000000000 b_6 <= 0
 c170: b_y_1_6 - b_1 - b_6 >= -1
 c171: b_y_2_7 - 0.500000000000 b_2 - 0.500000000000 b_7 <= 0
 c172: b_y_2_7 - b_2 - b_7 >= -1
 c173: b_y_3_8 - 0.500000000000 b_3 - 0.500000000000 b_8 <= 0
 c174: b_y_3_8 - b_3 - b_8 >= -1
 c175: b_y_4_9 - 0.500000000000 b_4 - 0.500000000000 b_9 <= 0
 c176: b_y_4_9 - b_4 - b_9 >= -1
 c177: b_y_5_10 - 0.500000000000 b_5 - 0.500000000000 b_10 <= 0
 c178: b_y_5_10 - b_5 - b_10 >= -1
 c179: b_y_6_11 - 0.500000000000 b_6 - 0.500000000000 b_11 <= 0
 c180: b_y_6_11 - b_6 - b_11 >= -1
 c181: b_y_7_12 - 0.500000000000 b_7 - 0.500000000000 b_12 <= 0
 c182: b_y_7_12 - b_7 - b_12 >= -1
 c183: b_y_8_13 - 0.500000000000 b_8 - 0.500000000000 b_13 <= 0
 c184: b_y_8_13 - b_8 - b_13 >= -1
 c185: b_y_9_14 - 0.500000000000 b_9 - 0.500000000000 b_14 <= 0
 c186: b_y_9_14 - b_9 - b_14 >= -1
 c187: b_y_10_15 - 0.500000000000 b_10 - 0.500000000000 b_15 <= 0
 c188: b_y_10_15 - b_10 - b_15 >= -1
 c189: b_y_11_16 - 0.500000000000 b_11 - 0.500000000000 b_16 <= 0
 c190: b_y_11_16 - b_11 - b_16 >= -1
 c191: b_y_12_17 - 0.500000000000 b_12 - 0.500000000000 b_17 <= 0
 c192: b_y_12_17 - b_12 - b_17 >= -1
 c193: b_y_13_18 - 0.500000000000 b_13 - 0.500000000000 b_18 <= 0
 c194: b_y_13_18 - b_13 - b_18 >= -1
 c195: b_y_14_19 - 0.500000000000 b_14 - 0.500000000000 b_19 <= 0
 c196: b_y_14_19 - b_14 - b_19 >= -1
 c197: b_y_15_20 - 0.500000000000 b_15 - 0.500000000000 b_20 <= 0
 c198: b_y_15_20 - b_15 - b_20 >= -1
 c199: b_y_16_21 - 0.500000000000 b_16 - 0.500000000000 b_21 <= 0
 c200: b_y_16_21 - b_16 - b_21 >= -1
 c201: b_y_1_7 - 0.500000000000 b_1 - 0.500000000000 b_7 <= 0
 c202: b_y_1_7 - b_1 - b_7 >= -1
 c203: b_y_2_8 - 0.500000000000 b_2 - 0.500000000000 b_8 <= 0
 c204: b_y_2_8 - b_2 - b_8 >= -1
 c205: b_y_3_9 - 0.500000000000 b_3 - 0.500000000000 b_9 <= 0
 c206: b_y_3_9 - b_3 - b_9 >= -1
 c207: b_y_4_10 - 0.500000000000 b_4 - 0.500000000000 b_10 <= 0
 c208: b_y_4_10 - b_4 - b_10 >= -1
 c209: b_y_5_11 - 0.500000000000 b_5 - 0.500000000000 b_11 <= 0
 c210: b_y_5_11 - b_5 - b_11 >= -1
 c211: b_y_6_12 - 0.500000000000 b_6 - 0.500000000000 b_12 <= 0
 c212: b_y_6_12 - b_6 - b_12 >= -1
 c213: b_y_7_13 - 0.500000000000 b_7 - 0.500000000000 b_13 <= 0
 c214: b_y_7_13 - b_7 - b_13 >= -1
 c215: b_y_8_14 - 0.500000000000 b_8 - 0.500000000000 b_14 <= 0
 c216: b_y_8_14 - b_8 - b_14 >= -1
 c217: b_y_9_15 - 0.500000000000 b_9 - 0.500000000000 b_15 <= 0
 c218: b_y_9_15 - b_9 - b_15 >= -1
 c219: b_y_10_16 - 0.500000000000 b_10 - 0.500000000000 b_16 <= 0
 c220: b_y_10_16 - b_10 - b_16 >= -1
 c221: b_y_11_17 - 0.500000000000 b_11 - 0.500000000000 b_17 <= 0
 c222: b_y_11_17 - b_11 - b_17 >= -1
 c223: b_y_12_18 - 0.500000000000 b_12 - 0.500000000000 b_18 <= 0
 c224: b_y_12_18 - b_12 - b_18 >= -1
 c225: b_y_13_19 - 0.500000000000 b_13 - 0.500000000000 b_19 <= 0
 c226: b_y_13_19 - b_13 - b_19 >= -1
 c227: b_y_14_20 - 0.500000000000 b_14 - 0.500000000000 b_20 <= 0
 c228: b_y_14_20 - b_14 - b_20 >= -1
 c229: b_y_15_21 - 0.500000000000 b_15 - 0.500000000000 b_21 <= 0
 c230: b_y_15_21 - b_15 - b_21 >= -1
 c231: b_y_1_8 - 0.500000000000 b_1 - 0.500000000000 b_8 <= 0
 c232: b_y_1_8 - b_1 - b_8 >= -1
 c233: b_y_2_9 - 0.500000000000 b_2 - 0.500000000000 b_9 <= 0
 c234: b_y_2_9 - b_2 - b_9 >= -1
 c235: b_y_3_10 - 0.500000000000 b_3 - 0.500000000000 b_10 <= 0
 c236: b_y_3_10 - b_3 - b_10 >= -1
 c237: b_y_4_11 - 0.500000000000 b_4 - 0.500000000000 b_11 <= 0
 c238: b_y_4_11 - b_4 - b_11 >= -1
 c239: b_y_5_12 - 0.500000000000 b_5 - 0.500000000000 b_12 <= 0
 c240: b_y_5_12 - b_5 - b_12 >= -1
 c241: b_y_6_13 - 0.500000000000 b_6 - 0.500000000000 b_13 <= 0
 c242: b_y_6_13 - b_6 - b_13 >= -1
 c243: b_y_7_14 - 0.500000000000 b_7 - 0.500000000000 b_14 <= 0
 c244: b_y_7_14 - b_7 - b_14 >= -1
 c245: b_y_8_15 - 0.500000000000 b_8 - 0.500000000000 b_15 <= 0
 c246: b_y_8_15 - b_8 - b_15 >= -1
 c247: b_y_9_16 - 0.500000000000 b_9 - 0.500000000000 b_16 <= 0
 c248: b_y_9_16 - b_9 - b_16 >= -1
 c249: b_y_10_17 - 0.500000000000 b_10 - 0.500000000000 b_17 <= 0
 c250: b_y_10_17 - b_10 - b_17 >= -1
 c251: b_y_11_18 - 0.500000000000 b_11 - 0.500000000000 b_18 <= 0
 c252: b_y_11_18 - b_11 - b_18 >= -1
 c253: b_y_12_19 - 0.500000000000 b_12 - 0.500000000000 b_19 <= 0
 c254: b_y_12_19 - b_12 - b_19 >= -1
 c255: b_y_13_20 - 0.500000000000 b_13 - 0.500000000000 b_20 <= 0
 c256: b_y_13_20 - b_13 - b_20 >= -1
 c257: b_y_14_21 - 0.500000000000 b_14 - 0.500000000000 b_21 <= 0
 c258: b_y_14_21 - b_14 - b_21 >= -1
 c259: b_y_1_9 - 0.500000000000 b_1 - 0.500000000000 b_9 <= 0
 c260: b_y_1_9 - b_1 - b_9 >= -1
 c261: b_y_2_10 - 0.500000000000 b_2 - 0.500000000000 b_10 <= 0
 c262: b_y_2_10 - b_2 - b_10 >= -1
 c263: b_y_3_11 - 0.500000000000 b_3 - 0.500000000000 b_11 <= 0
 c264: b_y_3_11 - b_3 - b_11 >= -1
 c265: b_y_4_12 - 0.500000000000 b_4 - 0.500000000000 b_12 <= 0
 c266: b_y_4_12 - b_4 - b_12 >= -1
 c267: b_y_5_13 - 0.500000000000 b_5 - 0.500000000000 b_13 <= 0
 c268: b_y_5_13 - b_5 - b_13 >= -1
 c269: b_y_6_14 - 0.500000000000 b_6 - 0.500000000000 b_14 <= 0
 c270: b_y_6_14 - b_6 - b_14 >= -1
 c271: b_y_7_15 - 0.500000000000 b_7 - 0.500000000000 b_15 <= 0
 c272: b_y_7_15 - b_7 - b_15 >= -1
 c273: b_y_8_16 - 0.500000000000 b_8 - 0.500000000000 b_16 <= 0
 c274: b_y_8_16 - b_8 - b_16 >= -1
 c275: b_y_9_17 - 0.500000000000 b_9 - 0.500000000000 b_17 <= 0
 c276: b_y_9_17 - b_9 - b_17 >= -1
 c277: b_y_10_18 - 0.500000000000 b_10 - 0.500000000000 b_18 <= 0
 c278: b_y_10_18 - b_10 - b_18 >= -1
 c279: b_y_11_19 - 0.500000000000 b_11 - 0.500000000000 b_19 <= 0
 c280: b_y_11_19 - b_11 - b_19 >= -1
 c281: b_y_12_20 - 0.500000000000 b_12 - 0.500000000000 b_20 <= 0
 c282: b_y_12_20 - b_12 - b_20 >= -1
 c283: b_y_13_21 - 0.500000000000 b_13 - 0.500000000000 b_21 <= 0
 c284: b_y_13_21 - b_13 - b_21 >= -1
 c285: b_y_1_10 - 0.500000000000 b_1 - 0.500000000000 b_10 <= 0
 c286: b_y_1_10 - b_1 - b_10 >= -1
 c287: b_y_2_11 - 0.500000000000 b_2 - 0.500000000000 b_11 <= 0
 c288: b_y_2_11 - b_2 - b_11 >= -1
 c289: b_y_3_12 - 0.500000000000 b_3 - 0.500000000000 b_12 <= 0
 c290: b_y_3_12 - b_3 - b_12 >= -1
 c291: b_y_4_13 - 0.500000000000 b_4 - 0.500000000000 b_13 <= 0
 c292: b_y_4_13 - b_4 - b_13 >= -1
 c293: b_y_5_14 - 0.500000000000 b_5 - 0.500000000000 b_14 <= 0
 c294: b_y_5_14 - b_5 - b_14 >= -1
 c295: b_y_6_15 - 0.500000000000 b_6 - 0.500000000000 b_15 <= 0
 c296: b_y_6_15 - b_6 - b_15 >= -1
 c297: b_y_7_16 - 0.500000000000 b_7 - 0.500000000000 b_16 <= 0
 c298: b_y_7_16 - b_7 - b_16 >= -1
 c299: b_y_8_17 - 0.500000000000 b_8 - 0.500000000000 b_17 <= 0
 c300: b_y_8_17 - b_8 - b_17 >= -1
 c301: b_y_9_18 - 0.500000000000 b_9 - 0.500000000000 b_18 <= 0
 c302: b_y_9_18 - b_9 - b_18 >= -1
 c303: b_y_10_19 - 0.500000000000 b_10 - 0.500000000000 b_19 <= 0
 c304: b_y_10_19 - b_10 - b_19 >= -1
 c305: b_y_11_20 - 0.500000000000 b_11 - 0.500000000000 b_20 <= 0
 c306: b_y_11_20 - b_11 - b_20 >= -1
 c307: b_y_12_21 - 0.500000000000 b_12 - 0.500000000000 b_21 <= 0
 c308: b_y_12_21 - b_12 - b_21 >= -1
 c309: b_y_1_11 - 0.500000000000 b_1 - 0.500000000000 b_11 <= 0
 c310: b_y_1_11 - b_1 - b_11 >= -1
 c311: b_y_2_12 - 0.500000000000 b_2 - 0.500000000000 b_12 <= 0
 c312: b_y_2_12 - b_2 - b_12 >= -1
 c313: b_y_3_13 - 0.500000000000 b_3 - 0.500000000000 b_13 <= 0
 c314: b_y_3_13 - b_3 - b_13 >= -1
 c315: b_y_4_14 - 0.500000000000 b_4 - 0.500000000000 b_14 <= 0
 c316: b_y_4_14 - b_4 - b_14 >= -1
 c317: b_y_5_15 - 0.500000000000 b_5 - 0.500000000000 b_15 <= 0
 c318: b_y_5_15 - b_5 - b_15 >= -1
 c319: b_y_6_16 - 0.500000000000 b_6 - 0.500000000000 b_16 <= 0
 c320: b_y_6_16 - b_6 - b_16 >= -1
 c321: b_y_7_17 - 0.500000000000 b_7 - 0.500000000000 b_17 <= 0
 c322: b_y_7_17 - b_7 - b_17 >= -1
 c323: b_y_8_18 - 0.500000000000 b_8 - 0.500000000000 b_18 <= 0
 c324: b_y_8_18 - b_8 - b_18 >= -1
 c325: b_y_9_19 - 0.500000000000 b_9 - 0.500000000000 b_19 <= 0
 c326: b_y_9_19 - b_9 - b_19 >= -1
 c327: b_y_10_20 - 0.500000000000 b_10 - 0.500000000000 b_20 <= 0
 c328: b_y_10_20 - b_10 - b_20 >= -1
 c329: b_y_11_21 - 0.500000000000 b_11 - 0.500000000000 b_21 <= 0
 c330: b_y_11_21 - b_11 - b_21 >= -1
 c331: b_y_1_12 - 0.500000000000 b_1 - 0.500000000000 b_12 <= 0
 c332: b_y_1_12 - b_1 - b_12 >= -1
 c333: b_y_2_13 - 0.500000000000 b_2 - 0.500000000000 b_13 <= 0
 c334: b_y_2_13 - b_2 - b_13 >= -1
 c335: b_y_3_14 - 0.500000000000 b_3 - 0.500000000000 b_14 <= 0
 c336: b_y_3_14 - b_3 - b_14 >= -1
 c337: b_y_4_15 - 0.500000000000 b_4 - 0.500000000000 b_15 <= 0
 c338: b_y_4_15 - b_4 - b_15 >= -1
 c339: b_y_5_16 - 0.500000000000 b_5 - 0.500000000000 b_16 <= 0
 c340: b_y_5_16 - b_5 - b_16 >= -1
 c341: b_y_6_17 - 0.500000000000 b_6 - 0.500000000000 b_17 <= 0
 c342: b_y_6_17 - b_6 - b_17 >= -1
 c343: b_y_7_18 - 0.500000000000 b_7 - 0.500000000000 b_18 <= 0
 c344: b_y_7_18 - b_7 - b_18 >= -1
 c345: b_y_8_19 - 0.500000000000 b_8 - 0.500000000000 b_19 <= 0
 c346: b_y_8_19 - b_8 - b_19 >= -1
 c347: b_y_9_20 - 0.500000000000 b_9 - 0.500000000000 b_20 <= 0
 c348: b_y_9_20 - b_9 - b_20 >= -1
 c349: b_y_10_21 - 0.500000000000 b_10 - 0.500000000000 b_21 <= 0
 c350: b_y_10_21 - b_10 - b_21 >= -1
 c351: b_y_1_13 - 0.500000000000 b_1 - 0.500000000000 b_13 <= 0
 c352: b_y_1_13 - b_1 - b_13 >= -1
 c353: b_y_2_14 - 0.500000000000 b_2 - 0.500000000000 b_14 <= 0
 c354: b_y_2_14 - b_2 - b_14 >= -1
 c355: b_y_3_15 - 0.500000000000 b_3 - 0.500000000000 b_15 <= 0
 c356: b_y_3_15 - b_3 - b_15 >= -1
 c357: b_y_4_16 - 0.500000000000 b_4 - 0.500000000000 b_16 <= 0
 c358: b_y_4_16 - b_4 - b_16 >= -1
 c359: b_y_5_17 - 0.500000000000 b_5 - 0.500000000000 b_17 <= 0
 c360: b_y_5_17 - b_5 - b_17 >= -1
 c361: b_y_6_18 - 0.500000000000 b_6 - 0.500000000000 b_18 <= 0
 c362: b_y_6_18 - b_6 - b_18 >= -1
 c363: b_y_7_19 - 0.500000000000 b_7 - 0.500000000000 b_19 <= 0
 c364: b_y_7_19 - b_7 - b_19 >= -1
 c365: b_y_8_20 - 0.500000000000 b_8 - 0.500000000000 b_20 <= 0
 c366: b_y_8_20 - b_8 - b_20 >= -1
 c367: b_y_9_21 - 0.500000000000 b_9 - 0.500000000000 b_21 <= 0
 c368: b_y_9_21 - b_9 - b_21 >= -1
 c369: b_y_1_14 - 0.500000000000 b_1 - 0.500000000000 b_14 <= 0
 c370: b_y_1_14 - b_1 - b_14 >= -1
 c371: b_y_2_15 - 0.500000000000 b_2 - 0.500000000000 b_15 <= 0
 c372: b_y_2_15 - b_2 - b_15 >= -1
 c373: b_y_3_16 - 0.500000000000 b_3 - 0.500000000000 b_16 <= 0
 c374: b_y_3_16 - b_3 - b_16 >= -1
 c375: b_y_4_17 - 0.500000000000 b_4 - 0.500000000000 b_17 <= 0
 c376: b_y_4_17 - b_4 - b_17 >= -1
 c377: b_y_5_18 - 0.500000000000 b_5 - 0.500000000000 b_18 <= 0
 c378: b_y_5_18 - b_5 - b_18 >= -1
 c379: b_y_6_19 - 0.500000000000 b_6 - 0.500000000000 b_19 <= 0
 c380: b_y_6_19 - b_6 - b_19 >= -1
 c381: b_y_7_20 - 0.500000000000 b_7 - 0.500000000000 b_20 <= 0
 c382: b_y_7_20 - b_7 - b_20 >= -1
 c383: b_y_8_21 - 0.500000000000 b_8 - 0.500000000000 b_21 <= 0
 c384: b_y_8_21 - b_8 - b_21 >= -1
 c385: b_y_1_15 - 0.500000000000 b_1 - 0.500000000000 b_15 <= 0
 c386: b_y_1_15 - b_1 - b_15 >= -1
 c387: b_y_2_16 - 0.500000000000 b_2 - 0.500000000000 b_16 <= 0
 c388: b_y_2_16 - b_2 - b_16 >= -1
 c389: b_y_3_17 - 0.500000000000 b_3 - 0.500000000000 b_17 <= 0
 c390: b_y_3_17 - b_3 - b_17 >= -1
 c391: b_y_4_18 - 0.500000000000 b_4 - 0.500000000000 b_18 <= 0
 c392: b_y_4_18 - b_4 - b_18 >= -1
 c393: b_y_5_19 - 0.500000000000 b_5 - 0.500000000000 b_19 <= 0
 c394: b_y_5_19 - b_5 - b_19 >= -1
 c395: b_y_6_20 - 0.500000000000 b_6 - 0.500000000000 b_20 <= 0
 c396: b_y_6_20 - b_6 - b_20 >= -1
 c397: b_y_7_21 - 0.500000000000 b_7 - 0.500000000000 b_21 <= 0
 c398: b_y_7_21 - b_7 - b_21 >= -1
 c399: b_y_1_16 - 0.500000000000 b_1 - 0.500000000000 b_16 <= 0
 c400: b_y_1_16 - b_1 - b_16 >= -1
 c401: b_y_2_17 - 0.500000000000 b_2 - 0.500000000000 b_17 <= 0
 c402: b_y_2_17 - b_2 - b_17 >= -1
 c403: b_y_3_18 - 0.500000000000 b_3 - 0.500000000000 b_18 <= 0
 c404: b_y_3_18 - b_3 - b_18 >= -1
 c405: b_y_4_19 - 0.500000000000 b_4 - 0.500000000000 b_19 <= 0
 c406: b_y_4_19 - b_4 - b_19 >= -1
 c407: b_y_5_20 - 0.500000000000 b_5 - 0.500000000000 b_20 <= 0
 c408: b_y_5_20 - b_5 - b_20 >= -1
 c409: b_y_6_21 - 0.500000000000 b_6 - 0.500000000000 b_21 <= 0
 c410: b_y_6_21 - b_6 - b_21 >= -1
 c411: b_y_1_17 - 0.500000000000 b_1 - 0.500000000000 b_17 <= 0
 c412: b_y_1_17 - b_1 - b_17 >= -1
 c413: b_y_2_18 - 0.500000000000 b_2 - 0.500000000000 b_18 <= 0
 c414: b_y_2_18 - b_2 - b_18 >= -1
 c415: b_y_3_19 - 0.500000000000 b_3 - 0.500000000000 b_19 <= 0
 c416: b_y_3_19 - b_3 - b_19 >= -1
 c417: b_y_4_20 - 0.500000000000 b_4 - 0.500000000000 b_20 <= 0
 c418: b_y_4_20 - b_4 - b_20 >= -1
 c419: b_y_5_21 - 0.500000000000 b_5 - 0.500000000000 b_21 <= 0
 c420: b_y_5_21 - b_5 - b_21 >= -1
 c421: b_y_1_18 - 0.500000000000 b_1 - 0.500000000000 b_18 <= 0
 c422: b_y_1_18 - b_1 - b_18 >= -1
 c423: b_y_2_19 - 0.500000000000 b_2 - 0.500000000000 b_19 <= 0
 c424: b_y_2_19 - b_2 - b_19 >= -1
 c425: b_y_3_20 - 0.500000000000 b_3 - 0.500000000000 b_20 <= 0
 c426: b_y_3_20 - b_3 - b_20 >= -1
 c427: b_y_4_21 - 0.500000000000 b_4 - 0.500000000000 b_21 <= 0
 c428: b_y_4_21 - b_4 - b_21 >= -1
 c429: b_y_1_19 - 0.500000000000 b_1 - 0.500000000000 b_19 <= 0
 c430: b_y_1_19 - b_1 - b_19 >= -1
 c431: b_y_2_20 - 0.500000000000 b_2 - 0.500000000000 b_20 <= 0
 c432: b_y_2_20 - b_2 - b_20 >= -1
 c433: b_y_3_21 - 0.500000000000 b_3 - 0.500000000000 b_21 <= 0
 c434: b_y_3_21 - b_3 - b_21 >= -1
 c435: b_y_1_20 - 0.500000000000 b_1 - 0.500000000000 b_20 <= 0
 c436: b_y_1_20 - b_1 - b_20 >= -1
 c437: b_y_2_21 - 0.500000000000 b_2 - 0.500000000000 b_21 <= 0
 c438: b_y_2_21 - b_2 - b_21 >= -1
 c439: b_y_1_21 - 0.500000000000 b_1 - 0.500000000000 b_21 <= 0
 c440: b_y_1_21 - b_1 - b_21 >= -1

Bounds
 0 <= b_1 <= 1
 0 <= b_2 <= 1
 0 <= b_3 <= 1
 0 <= b_4 <= 1
 0 <= b_5 <= 1
 0 <= b_6 <= 1
 0 <= b_7 <= 1
 0 <= b_8 <= 1
 0 <= b_9 <= 1
 0 <= b_10 <= 1
 0 <= b_11 <= 1
 0 <= b_12 <= 1
 0 <= b_13 <= 1
 0 <= b_14 <= 1
 0 <= b_15 <= 1
 0 <= b_16 <= 1
 0 <= b_17 <= 1
 0 <= b_18 <= 1
 0 <= b_19 <= 1
 0 <= b_20 <= 1
 0 <= b_21 <= 1
 0 <= b_y_1_2 <= 1
 0 <= b_y_2_3 <= 1
 0 <= b_y_3_4 <= 1
 0 <= b_y_4_5 <= 1
 0 <= b_y_5_6 <= 1
 0 <= b_y_6_7 <= 1
 0 <= b_y_7_8 <= 1
 0 <= b_y_8_9 <= 1
 0 <= b_y_9_10 <= 1
 0 <= b_y_10_11 <= 1
 0 <= b_y_11_12 <= 1
 0 <= b_y_12_13 <= 1
 0 <= b_y_13_14 <= 1
 0 <= b_y_14_15 <= 1
 0 <= b_y_15_16 <= 1
 0 <= b_y_16_17 <= 1
 0 <= b_y_17_18 <= 1
 0 <= b_y_18_19 <= 1
 0 <= b_y_19_20 <= 1
 0 <= b_y_20_21 <= 1
 0 <= b_y_1_3 <= 1
 0 <= b_y_2_4 <= 1
 0 <= b_y_3_5 <= 1
 0 <= b_y_4_6 <= 1
 0 <= b_y_5_7 <= 1
 0 <= b_y_6_8 <= 1
 0 <= b_y_7_9 <= 1
 0 <= b_y_8_10 <= 1
 0 <= b_y_9_11 <= 1
 0 <= b_y_10_12 <= 1
 0 <= b_y_11_13 <= 1
 0 <= b_y_12_14 <= 1
 0 <= b_y_13_15 <= 1
 0 <= b_y_14_16 <= 1
 0 <= b_y_15_17 <= 1
 0 <= b_y_16_18 <= 1
 0 <= b_y_17_19 <= 1
 0 <= b_y_18_20 <= 1
 0 <= b_y_19_21 <= 1
 0 <= b_y_1_4 <= 1
 0 <= b_y_2_5 <= 1
 0 <= b_y_3_6 <= 1
 0 <= b_y_4_7 <= 1
 0 <= b_y_5_8 <= 1
 0 <= b_y_6_9 <= 1
 0 <= b_y_7_10 <= 1
 0 <= b_y_8_11 <= 1
 0 <= b_y_9_12 <= 1
 0 <= b_y_10_13 <= 1
 0 <= b_y_11_14 <= 1
 0 <= b_y_12_15 <= 1
 0 <= b_y_13_16 <= 1
 0 <= b_y_14_17 <= 1
 0 <= b_y_15_18 <= 1
 0 <= b_y_16_19 <= 1
 0 <= b_y_17_20 <= 1
 0 <= b_y_18_21 <= 1
 0 <= b_y_1_5 <= 1
 0 <= b_y_2_6 <= 1
 0 <= b_y_3_7 <= 1
 0 <= b_y_4_8 <= 1
 0 <= b_y_5_9 <= 1
 0 <= b_y_6_10 <= 1
 0 <= b_y_7_11 <= 1
 0 <= b_y_8_12 <= 1
 0 <= b_y_9_13 <= 1
 0 <= b_y_10_14 <= 1
 0 <= b_y_11_15 <= 1
 0 <= b_y_12_16 <= 1
 0 <= b_y_13_17 <= 1
 0 <= b_y_14_18 <= 1
 0 <= b_y_15_19 <= 1
 0 <= b_y_16_20 <= 1
 0 <= b_y_17_21 <= 1
 0 <= b_y_1_6 <= 1
 0 <= b_y_2_7 <= 1
 0 <= b_y_3_8 <= 1
 0 <= b_y_4_9 <= 1
 0 <= b_y_5_10 <= 1
 0 <= b_y_6_11 <= 1
 0 <= b_y_7_12 <= 1
 0 <= b_y_8_13 <= 1
 0 <= b_y_9_14 <= 1
 0 <= b_y_10_15 <= 1
 0 <= b_y_11_16 <= 1
 0 <= b_y_12_17 <= 1
 0 <= b_y_13_18 <= 1
 0 <= b_y_14_19 <= 1
 0 <= b_y_15_20 <= 1
 0 <= b_y_16_21 <= 1
 0 <= b_y_1_7 <= 1
 0 <= b_y_2_8 <= 1
 0 <= b_y_3_9 <= 1
 0 <= b_y_4_10 <= 1
 0 <= b_y_5_11 <= 1
 0 <= b_y_6_12 <= 1
 0 <= b_y_7_13 <= 1
 0 <= b_y_8_14 <= 1
 0 <= b_y_9_15 <= 1
 0 <= b_y_10_16 <= 1
 0 <= b_y_11_17 <= 1
 0 <= b_y_12_18 <= 1
 0 <= b_y_13_19 <= 1
 0 <= b_y_14_20 <= 1
 0 <= b_y_15_21 <= 1
 0 <= b_y_1_8 <= 1
 0 <= b_y_2_9 <= 1
 0 <= b_y_3_10 <= 1
 0 <= b_y_4_11 <= 1
 0 <= b_y_5_12 <= 1
 0 <= b_y_6_13 <= 1
 0 <= b_y_7_14 <= 1
 0 <= b_y_8_15 <= 1
 0 <= b_y_9_16 <= 1
 0 <= b_y_10_17 <= 1
 0 <= b_y_11_18 <= 1
 0 <= b_y_12_19 <= 1
 0 <= b_y_13_20 <= 1
 0 <= b_y_14_21 <= 1
 0 <= b_y_1_9 <= 1
 0 <= b_y_2_10 <= 1
 0 <= b_y_3_11 <= 1
 0 <= b_y_4_12 <= 1
 0 <= b_y_5_13 <= 1
 0 <= b_y_6_14 <= 1
 0 <= b_y_7_15 <= 1
 0 <= b_y_8_16 <= 1
 0 <= b_y_9_17 <= 1
 0 <= b_y_10_18 <= 1
 0 <= b_y_11_19 <= 1
 0 <= b_y_12_20 <= 1
 0 <= b_y_13_21 <= 1
 0 <= b_y_1_10 <= 1
 0 <= b_y_2_11 <= 1
 0 <= b_y_3_12 <= 1
 0 <= b_y_4_13 <= 1
 0 <= b_y_5_14 <= 1
 0 <= b_y_6_15 <= 1
 0 <= b_y_7_16 <= 1
 0 <= b_y_8_17 <= 1
 0 <= b_y_9_18 <= 1
 0 <= b_y_10_19 <= 1
 0 <= b_y_11_20 <= 1
 0 <= b_y_12_21 <= 1
 0 <= b_y_1_11 <= 1
 0 <= b_y_2_12 <= 1
 0 <= b_y_3_13 <= 1
 0 <= b_y_4_14 <= 1
 0 <= b_y_5_15 <= 1
 0 <= b_y_6_16 <= 1
 0 <= b_y_7_17 <= 1
 0 <= b_y_8_18 <= 1
 0 <= b_y_9_19 <= 1
 0 <= b_y_10_20 <= 1
 0 <= b_y_11_21 <= 1
 0 <= b_y_1_12 <= 1
 0 <= b_y_2_13 <= 1
 0 <= b_y_3_14 <= 1
 0 <= b_y_4_15 <= 1
 0 <= b_y_5_16 <= 1
 0 <= b_y_6_17 <= 1
 0 <= b_y_7_18 <= 1
 0 <= b_y_8_19 <= 1
 0 <= b_y_9_20 <= 1
 0 <= b_y_10_21 <= 1
 0 <= b_y_1_13 <= 1
 0 <= b_y_2_14 <= 1
 0 <= b_y_3_15 <= 1
 0 <= b_y_4_16 <= 1
 0 <= b_y_5_17 <= 1
 0 <= b_y_6_18 <= 1
 0 <= b_y_7_19 <= 1
 0 <= b_y_8_20 <= 1
 0 <= b_y_9_21 <= 1
 0 <= b_y_1_14 <= 1
 0 <= b_y_2_15 <= 1
 0 <= b_y_3_16 <= 1
 0 <= b_y_4_17 <= 1
 0 <= b_y_5_18 <= 1
 0 <= b_y_6_19 <= 1
 0 <= b_y_7_20 <= 1
 0 <= b_y_8_21 <= 1
 0 <= b_y_1_15 <= 1
 0 <= b_y_2_16 <= 1
 0 <= b_y_3_17 <= 1
 0 <= b_y_4_18 <= 1
 0 <= b_y_5_19 <= 1
 0 <= b_y_6_20 <= 1
 0 <= b_y_7_21 <= 1
 0 <= b_y_1_16 <= 1
 0 <= b_y_2_17 <= 1
 0 <= b_y_3_18 <= 1
 0 <= b_y_4_19 <= 1
 0 <= b_y_5_20 <= 1
 0 <= b_y_6_21 <= 1
 0 <= b_y_1_17 <= 1
 0 <= b_y_2_18 <= 1
 0 <= b_y_3_19 <= 1
 0 <= b_y_4_20 <= 1
 0 <= b_y_5_21 <= 1
 0 <= b_y_1_18 <= 1
 0 <= b_y_2_19 <= 1
 0 <= b_y_3_20 <= 1
 0 <= b_y_4_21 <= 1
 0 <= b_y_1_19 <= 1
 0 <= b_y_2_20 <= 1
 0 <= b_y_3_21 <= 1
 0 <= b_y_1_20 <= 1
 0 <= b_y_2_21 <= 1
 0 <= b_y_1_21 <= 1
 -20 <= C_1 <= 20
 -19 <= C_2 <= 19
 -18 <= C_3 <= 18
 -17 <= C_4 <= 17
 -16 <= C_5 <= 16
 -15 <= C_6 <= 15
 -14 <= C_7 <= 14
 -13 <= C_8 <= 13
 -12 <= C_9 <= 12
 -11 <= C_10 <= 11
 -10 <= C_11 <= 10
 -9 <= C_12 <= 9
 -8 <= C_13 <= 8
 -7 <= C_14 <= 7
 -6 <= C_15 <= 6
 -5 <= C_16 <= 5
 -4 <= C_17 <= 4
 -3 <= C_18 <= 3
 -2 <= C_19 <= 2
 -1 <= C_20 <= 1

Binaries
 b_1 b_2 b_3 b_4 b_5 b_6 b_7 b_8 b_9 b_10 b_11 b_12 b_13 b_14 b_15 b_16 b_17
 b_18 b_19 b_20 b_21 b_y_1_2 b_y_2_3 b_y_3_4 b_y_4_5 b_y_5_6 b_y_6_7 b_y_7_8
 b_y_8_9 b_y_9_10 b_y_10_11 b_y_11_12 b_y_12_13 b_y_13_14 b_y_14_15 b_y_15_16
 b_y_16_17 b_y_17_18 b_y_18_19 b_y_19_20 b_y_20_21 b_y_1_3 b_y_2_4 b_y_3_5
 b_y_4_6 b_y_5_7 b_y_6_8 b_y_7_9 b_y_8_10 b_y_9_11 b_y_10_12 b_y_11_13 b_y_12_14
 b_y_13_15 b_y_14_16 b_y_15_17 b_y_16_18 b_y_17_19 b_y_18_20 b_y_19_21 b_y_1_4
 b_y_2_5 b_y_3_6 b_y_4_7 b_y_5_8 b_y_6_9 b_y_7_10 b_y_8_11 b_y_9_12 b_y_10_13
 b_y_11_14 b_y_12_15 b_y_13_16 b_y_14_17 b_y_15_18 b_y_16_19 b_y_17_20 b_y_18_21
 b_y_1_5 b_y_2_6 b_y_3_7 b_y_4_8 b_y_5_9 b_y_6_10 b_y_7_11 b_y_8_12 b_y_9_13
 b_y_10_14 b_y_11_15 b_y_12_16 b_y_13_17 b_y_14_18 b_y_15_19 b_y_16_20 b_y_17_21
 b_y_1_6 b_y_2_7 b_y_3_8 b_y_4_9 b_y_5_10 b_y_6_11 b_y_7_12 b_y_8_13 b_y_9_14
 b_y_10_15 b_y_11_16 b_y_12_17 b_y_13_18 b_y_14_19 b_y_15_20 b_y_16_21 b_y_1_7
 b_y_2_8 b_y_3_9 b_y_4_10 b_y_5_11 b_y_6_12 b_y_7_13 b_y_8_14 b_y_9_15 b_y_10_16
 b_y_11_17 b_y_12_18 b_y_13_19 b_y_14_20 b_y_15_21 b_y_1_8 b_y_2_9 b_y_3_10
 b_y_4_11 b_y_5_12 b_y_6_13 b_y_7_14 b_y_8_15 b_y_9_16 b_y_10_17 b_y_11_18
 b_y_12_19 b_y_13_20 b_y_14_21 b_y_1_9 b_y_2_10 b_y_3_11 b_y_4_12 b_y_5_13
 b_y_6_14 b_y_7_15 b_y_8_16 b_y_9_17 b_y_10_18 b_y_11_19 b_y_12_20 b_y_13_21
 b_y_1_10 b_y_2_11 b_y_3_12 b_y_4_13 b_y_5_14 b_y_6_15 b_y_7_16 b_y_8_17
 b_y_9_18 b_y_10_19 b_y_11_20 b_y_12_21 b_y_1_11 b_y_2_12 b_y_3_13 b_y_4_14
 b_y_5_15 b_y_6_16 b_y_7_17 b_y_8_18 b_y_9_19 b_y_10_20 b_y_11_21 b_y_1_12
 b_y_2_13 b_y_3_14 b_y_4_15 b_y_5_16 b_y_6_17 b_y_7_18 b_y_8_19 b_y_9_20
 b_y_10_21 b_y_1_13 b_y_2_14 b_y_3_15 b_y_4_16 b_y_5_17 b_y_6_18 b_y_7_19
 b_y_8_20 b_y_9_21 b_y_1_14 b_y_2_15 b_y_3_16 b_y_4_17 b_y_5_18 b_y_6_19
 b_y_7_20 b_y_8_21 b_y_1_15 b_y_2_16 b_y_3_17 b_y_4_18 b_y_5_19 b_y_6_20
 b_y_7_21 b_y_1_16 b_y_2_17 b_y_3_18 b_y_4_19 b_y_5_20 b_y_6_21 b_y_1_17
 b_y_2_18 b_y_3_19 b_y_4_20 b_y_5_21 b_y_1_18 b_y_2_19 b_y_3_20 b_y_4_21
 b_y_1_19 b_y_2_20 b_y_3_21 b_y_1_20 b_y_2_21 b_y_1_21

Generals
 C_1 C_2 C_3 C_4 C_5 C_6 C_7 C_8 C_9 C_10 C_11 C_12 C_13 C_14 C_15 C_16 C_17
 C_18 C_19 C_20
End
